TCS_Benchmarks/redos_fix/corpus3_output_distinct_2436_2435_0_0.txt
([0-9]|[!*\(,\)]|(%[A-Fa-f0-9][A-Fa-f0-9])|[A-Za-z])+([0-9]|[!*\(,\)]|(%[A-Fa-f0-9][A-Fa-f0-9])|[@$-_&+.])+
([0-9]|[!*\(,\)]|(%[A-Fa-f0-9][A-Fa-f0-9])|[@$-_&+.])+
A.*